Version identifier: 22.1.1.0 | 2022-11-28 | 9160aff4d
CPXPARAM_ClockType                               1
CPXPARAM_Read_DataCheck                          1
CPXPARAM_Threads                                 1
CPXPARAM_Simplex_Tolerances_Optimality           1.0000000000000001e-09
CPXPARAM_TimeLimit                               7200
CPXPARAM_MIP_Tolerances_AbsMIPGap                0
CPXPARAM_MIP_Tolerances_MIPGap                   0
CPXPARAM_MIP_Tolerances_Integrality              0
Found incumbent of value 0.000000 after 0.00 sec. (0.91 ticks)
Tried aggregator 1 time.
MIQP Presolve eliminated 1597 rows and 9 columns.
MIQP Presolve modified 818 coefficients.
Reduced MIQP has 8044 rows, 2991 columns, and 25416 nonzeros.
Reduced MIQP has 2841 binaries, 150 generals, 0 SOSs, and 0 indicators.
Reduced MIQP objective Q matrix has 150 nonzeros.
Presolve time = 0.03 sec. (17.67 ticks)
Probing time = 0.01 sec. (2.54 ticks)
Tried aggregator 1 time.
MIQP Presolve eliminated 500 rows and 0 columns.
Reduced MIQP has 7544 rows, 2991 columns, and 23916 nonzeros.
Reduced MIQP has 2841 binaries, 150 generals, 0 SOSs, and 0 indicators.
Reduced MIQP objective Q matrix has 150 nonzeros.
Presolve time = 0.02 sec. (15.44 ticks)
Classifier predicts products in MIQP should be linearized.
Probing time = 0.00 sec. (2.44 ticks)
Clique table members: 3910.
MIP emphasis: balance optimality and feasibility.
MIP search method: dynamic search.
Parallel mode: none, using 1 thread.
Root relaxation solution time = 2.48 sec. (3443.47 ticks)

        Nodes                                         Cuts/
   Node  Left     Objective  IInf  Best Integer    Best Bound    ItCnt     Gap

*     0+    0                            0.0000    15000.0000              --- 
      0     0     3333.3333  1676        0.0000     3333.3333        6     --- 
      0     0     3333.3333  2574        0.0000     Cuts: 725   213644     --- 
      0     0     3333.3333  2584        0.0000    Cuts: 1986   291691     --- 
Heuristic still looking.
Heuristic still looking.
Heuristic still looking.
*     0+    0                           18.0000     3333.3333              --- 
*     0+    0                          140.0000     3333.3333              --- 
*     0+    0                          146.0000     3333.3333              --- 
*     0+    0                          218.0000     3333.3333              --- 
*     0+    0                          248.0000     3333.3333              --- 
*     0+    0                          250.0000     3333.3333              --- 
      0     0        cutoff            250.0000     3333.3333   291691     --- 
      0     2     3333.3333  2561      250.0000     3333.3333   291691     --- 
Elapsed time = 662.82 sec. (290794.21 ticks, tree = 0.01 MB, solutions = 7)
      1     3     3333.3333  2493      250.0000     3333.3333   534858     --- 
      2     4     3333.3333  2530      250.0000     3333.3333   619827     --- 
      3     5     3333.3333  2471      250.0000     3333.3333   728624     --- 
      4     6     3332.6667  2446      250.0000     3333.3333   910447     --- 
      5     5    infeasible            250.0000     3333.3333   918458     --- 
      6     4    infeasible            250.0000     3333.3333   923096     --- 
      7     3    infeasible            250.0000     3333.3333   927734     --- 
      8     2    infeasible            250.0000     3333.3333   940190     --- 
      9     1    infeasible            250.0000     3333.3333   952657     --- 
     10     0    infeasible            250.0000      250.0000   963192    0.00%
Elapsed time = 1073.59 sec. (463868.14 ticks, tree = 0.01 MB, solutions = 7)

Clique cuts applied:  48
Implied bound cuts applied:  1
Zero-half cuts applied:  51
Gomory fractional cuts applied:  6

Root node processing (before b&c):
  Real time             =  662.81 sec. (290790.09 ticks)
Sequential b&c:
  Real time             =  410.78 sec. (173078.88 ticks)
                          ------------
Total (root+branch&cut) = 1073.59 sec. (463868.97 ticks)
Solution is feasible.

---------------------
@@@ MIP_optimal
>>> Benchmark flat50-4.cnf k 10 OPT 249 TimeCost 1078.1280224323273 TimeSolve 1077.5199494361877 TimeRead 0.0018262863159179688 TimeTrans 0.6062467098236084
